PROBLEM NAME: eil51_n9
KNAPSACK DATA TYPE: multiple strongly correlated
DIMENSION: 9
NUMBER OF ITEMS: 8
CAPACITY OF KNAPSACK: 992
MIN SPEED: 0.1
MAX SPEED: 1
RENTING RATIO: 1.82
EDGE_WEIGHT_TYPE: CEIL_2D
NODE_COORD_SECTION	(INDEX, X, Y):
1	17	63
2	31	62
3	36	16
4	52	41
5	27	23
6	62	63
7	32	22
8	5	6
9	56	37
ITEMS SECTION	(INDEX, PROFIT, WEIGHT, ASSIGNED NODE NUMBER):
1	1192	992	2
2	1015	815	6
3	849	649	4
4	706	506	9
5	657	457	3
6	616	416	7
7	437	237	5
8	294	94	8
